Minimize
	value: tt

Subject to
tt + 2000 s_1_1 > 0
tt - t_1_1 - 2000.000000 s_1_1 > -1988.140000
tt + 2000 s_2_1 > 0
tt - t_2_1 - 2000.000000 s_2_1 > -1996.769000
tt + 2000 s_1_2 > 0
tt - t_1_2 - 2000.000000 s_1_2 > -1991.723200
tt + 2000 s_2_2 > 0
tt - t_2_2 - 2000.000000 s_2_2 > -1998.087667
tt + 2000 s_1_3 > 0
tt - t_1_3 - 2000.000000 s_1_3 > -1981.473500
tt + 2000 s_2_3 > 0
tt - t_2_3 - 2000.000000 s_2_3 > -1993.807597
tt + 2000 s_1_4 > 0
tt - t_1_4 - 2000.000000 s_1_4 > -1988.815300
tt + 2000 s_2_4 > 0
tt - t_2_4 - 2000.000000 s_2_4 > -1996.450472
tt + 2000 s_1_5 > 0
tt - t_1_5 - 2033.513600 s_1_5 + 33.513600 s_1_3 > -1999.464125
tt + 2000 s_2_5 > 0
tt - t_2_5 - 2053.817264 s_2_5 + 53.817264 s_2_3 > -1998.450375
s_1_1 + s_2_1  = 1
s_1_2 + s_2_2  = 1
s_1_3 + s_2_3  = 1
s_1_4 + s_2_4  = 1
s_1_5 + s_2_5  = 1
t_1_1 - t_1_2 + 2000.000000 u_1_1_2 > 8.276800
t_1_2 - t_1_1 - 2000.000000 u_1_1_2 > -1988.140000
t_2_1 - t_2_2 + 2000.000000 u_2_1_2 > 1.912333
t_2_2 - t_2_1 - 2000.000000 u_2_1_2 > -1996.769000
t_1_1 - t_1_3 + 2000.000000 u_1_1_3 > 18.526500
t_1_3 - t_1_1 - 2000.000000 u_1_1_3 > -1988.140000
t_2_1 - t_2_3 + 2000.000000 u_2_1_3 > 6.192403
t_2_3 - t_2_1 - 2000.000000 u_2_1_3 > -1996.769000
t_1_1 - t_1_4 + 2000.000000 u_1_1_4 > 11.184700
t_1_4 - t_1_1 - 2000.000000 u_1_1_4 > -1988.140000
t_2_1 - t_2_4 + 2000.000000 u_2_1_4 > 3.549528
t_2_4 - t_2_1 - 2000.000000 u_2_1_4 > -1996.769000
t_1_5 - t_1_1 - 2000.000000 s_1_1 > -1983.560680
t_1_5 - t_2_1 - 2000.000000 s_2_1 > -1985.163512
t_2_5 - t_1_1 - 2000.000000 s_1_1 > -1983.560680
t_2_5 - t_2_1 - 2000.000000 s_2_1 > -1985.163512
t_1_2 - t_1_1 + 2000.000000 u_1_2_1 > 11.860000
t_1_1 - t_1_2 - 2000.000000 u_1_2_1 > -1991.723200
t_2_2 - t_2_1 + 2000.000000 u_2_2_1 > 3.231000
t_2_1 - t_2_2 - 2000.000000 u_2_2_1 > -1998.087667
t_1_2 - t_1_3 + 2000.000000 u_1_2_3 > 18.526500
t_1_3 - t_1_2 - 2000.000000 u_1_2_3 > -1991.723200
t_2_2 - t_2_3 + 2000.000000 u_2_2_3 > 6.192403
t_2_3 - t_2_2 - 2000.000000 u_2_2_3 > -1998.087667
t_1_2 - t_1_4 + 2000.000000 u_1_2_4 > 11.184700
t_1_4 - t_1_2 - 2000.000000 u_1_2_4 > -1991.723200
t_2_2 - t_2_4 + 2000.000000 u_2_2_4 > 3.549528
t_2_4 - t_2_2 - 2000.000000 u_2_2_4 > -1998.087667
t_1_5 - t_1_2 - 2000.000000 s_1_2 > -1987.143880
t_1_5 - t_2_2 - 2000.000000 s_2_2 > -1986.482179
t_2_5 - t_1_2 - 2000.000000 s_1_2 > -1987.143880
t_2_5 - t_2_2 - 2000.000000 s_2_2 > -1986.482179
t_1_3 - t_1_1 + 2000.000000 u_1_3_1 > 11.860000
t_1_1 - t_1_3 - 2000.000000 u_1_3_1 > -1981.473500
t_2_3 - t_2_1 + 2000.000000 u_2_3_1 > 3.231000
t_2_1 - t_2_3 - 2000.000000 u_2_3_1 > -1993.807597
t_1_3 - t_1_2 + 2000.000000 u_1_3_2 > 8.276800
t_1_2 - t_1_3 - 2000.000000 u_1_3_2 > -1981.473500
t_2_3 - t_2_2 + 2000.000000 u_2_3_2 > 1.912333
t_2_2 - t_2_3 - 2000.000000 u_2_3_2 > -1993.807597
t_1_3 - t_1_4 + 2000.000000 u_1_3_4 > 11.184700
t_1_4 - t_1_3 - 2000.000000 u_1_3_4 > -1981.473500
t_2_3 - t_2_4 + 2000.000000 u_2_3_4 > 3.549528
t_2_4 - t_2_3 - 2000.000000 u_2_3_4 > -1993.807597
t_1_5 - t_1_3 - 2000.000000 s_1_3 > -1976.894180
t_1_5 - t_2_3 - 2000.000000 s_2_3 > -1982.202109
t_2_5 - t_1_3 - 2000.000000 s_1_3 > -1976.894180
t_2_5 - t_2_3 - 2000.000000 s_2_3 > -1982.202109
t_1_4 - t_1_1 + 2000.000000 u_1_4_1 > 11.860000
t_1_1 - t_1_4 - 2000.000000 u_1_4_1 > -1988.815300
t_2_4 - t_2_1 + 2000.000000 u_2_4_1 > 3.231000
t_2_1 - t_2_4 - 2000.000000 u_2_4_1 > -1996.450472
t_1_4 - t_1_2 + 2000.000000 u_1_4_2 > 8.276800
t_1_2 - t_1_4 - 2000.000000 u_1_4_2 > -1988.815300
t_2_4 - t_2_2 + 2000.000000 u_2_4_2 > 1.912333
t_2_2 - t_2_4 - 2000.000000 u_2_4_2 > -1996.450472
t_1_4 - t_1_3 + 2000.000000 u_1_4_3 > 18.526500
t_1_3 - t_1_4 - 2000.000000 u_1_4_3 > -1988.815300
t_2_4 - t_2_3 + 2000.000000 u_2_4_3 > 6.192403
t_2_3 - t_2_4 - 2000.000000 u_2_4_3 > -1996.450472
t_1_5 - t_1_4 - 2000.000000 s_1_4 > -1984.235980
t_1_5 - t_2_4 - 2000.000000 s_2_4 > -1984.844984
t_2_5 - t_1_4 - 2000.000000 s_1_4 > -1984.235980
t_2_5 - t_2_4 - 2000.000000 s_2_4 > -1984.844984
t_1_5 - t_1_1 - 2000.000000 s_1_1 > -1983.560680
t_1_5 - t_2_1 - 2000.000000 s_2_1 > -1985.163512
t_2_5 - t_1_1 - 2000.000000 s_1_1 > -1983.560680
t_2_5 - t_2_1 - 2000.000000 s_2_1 > -1985.163512
t_1_5 - t_1_2 - 2000.000000 s_1_2 > -1987.143880
t_1_5 - t_2_2 - 2000.000000 s_2_2 > -1986.482179
t_2_5 - t_1_2 - 2000.000000 s_1_2 > -1987.143880
t_2_5 - t_2_2 - 2000.000000 s_2_2 > -1986.482179
t_1_5 - t_1_3 - 2000.000000 s_1_3 > -1976.894180
t_1_5 - t_2_3 - 2000.000000 s_2_3 > -1982.202109
t_2_5 - t_1_3 - 2000.000000 s_1_3 > -1976.894180
t_2_5 - t_2_3 - 2000.000000 s_2_3 > -1982.202109
t_1_5 - t_1_4 - 2000.000000 s_1_4 > -1984.235980
t_1_5 - t_2_4 - 2000.000000 s_2_4 > -1984.844984
t_2_5 - t_1_4 - 2000.000000 s_1_4 > -1984.235980
t_2_5 - t_2_4 - 2000.000000 s_2_4 > -1984.844984
Binary
s_1_1
s_2_1
s_1_2
s_2_2
s_1_3
s_2_3
s_1_4
s_2_4
s_1_5
s_2_5
u_1_1_2
u_2_1_2
u_1_1_3
u_2_1_3
u_1_1_4
u_2_1_4
u_1_2_1
u_2_2_1
u_1_2_3
u_2_2_3
u_1_2_4
u_2_2_4
u_1_3_1
u_2_3_1
u_1_3_2
u_2_3_2
u_1_3_4
u_2_3_4
u_1_4_1
u_2_4_1
u_1_4_2
u_2_4_2
u_1_4_3
u_2_4_3

End
